unsat
(:binary-propagations  27
 :conflicts            1
 :final-checks         1
 :max-generation       1
 :max-memory           33.40
 :memory               23.33
 :mk-bool-var          5008
 :mk-clause            1694
 :mk-clause-binary     9035
 :num-allocs           281082411
 :num-checks           1
 :propagations         27
 :quant-instantiations 1560
 :restarts             1
 :rlimit-count         1250894
 :time                 0.24)
